%chk=H2_0p75.chk
# casscf(2,2)/3-21g geom=connectivity

Title Card Required

0 1
 H                 -2.17553922   -0.31587057    0.00000000
 H                 -2.92553922   -0.31587057    0.00000000

 1 2 1.0
 2
