%chk=H2_0p75.chk
# casscf(2,2)/3-21g geom=connectivity

Title Card Required

0 1
 H                  0.00000000   0.000000000    0.00000000
 H                  0.00000000   2.25000    0.00000000

 1 2 1.0
 2
